 200 50 
 39 22 48 81 9 40 29 87 25 13 57 45 
 92 1 85 97 31 13 6 73 77 35 30 11 
 73 44 98 7 43 13 49 95 6 81 97 77 
 9 25 42 85 1 92 57 19 12 7 85 97 
 82 42 
 6 
 8 16 26 42 46 49 
 35 
 2 3 4 5 6 9 10 11 12 16 18 19 
 20 23 26 27 28 29 30 31 32 33 34 35 
 36 39 41 43 44 45 46 47 48 49 50 
 36 
 3 4 5 6 8 9 10 12 13 15 16 19 
 20 21 22 23 24 25 26 28 29 30 32 36 
 37 38 40 41 42 43 44 45 46 47 48 49 
 6 
 1 2 5 8 19 41 
 11 
 1 4 10 12 13 15 17 35 40 43 46 
 16 
 1 6 9 14 15 19 20 23 28 34 35 37 
 41 45 48 50 
 30 
 1 2 4 5 6 8 9 11 12 15 18 19 
 20 23 24 25 26 27 29 33 34 37 38 41 
 42 43 44 45 46 47 
 23 
 3 4 5 10 11 12 13 16 19 21 22 27 
 30 31 33 34 35 37 38 43 45 48 50 
 46 
 2 3 4 5 6 7 8 9 10 11 12 13 
 14 15 16 17 18 19 20 21 22 23 24 25 
 26 27 28 29 30 31 32 33 34 35 36 38 
 39 40 41 42 43 44 46 47 48 49 
 44 
 1 2 3 4 5 6 7 9 11 12 13 14 
 15 16 17 18 19 20 22 23 24 25 26 27 
 28 30 31 32 33 34 35 36 37 38 39 40 
 41 42 43 45 46 48 49 50 
 35 
 1 2 4 5 7 8 9 10 11 12 13 14 
 18 19 20 21 22 23 24 25 26 27 28 29 
 30 32 33 35 37 38 39 42 45 47 50 
 23 
 5 6 10 11 12 16 19 21 23 24 25 27 
 29 30 32 33 34 40 42 43 44 46 50 
 24 
 5 6 12 13 16 17 19 20 24 25 26 27 
 30 31 32 34 37 40 42 43 46 47 48 49 
 12 
 2 7 9 12 14 17 19 22 29 32 39 41 
 2 
 22 24 
 22 
 1 2 5 8 10 11 12 13 14 16 17 18 
 20 25 34 35 36 37 38 40 43 48 
 27 
 1 2 4 5 7 8 9 11 14 17 19 20 
 21 22 25 29 33 35 36 37 38 40 41 42 
 44 46 49 
 22 
 2 4 7 9 10 12 15 21 23 26 29 30 
 32 34 35 36 38 42 44 47 48 50 
 17 
 6 7 9 11 13 16 23 24 27 34 35 41 
 43 45 48 49 50 
 9 
 2 10 15 23 26 28 31 37 45 
 29 
 2 5 6 7 9 11 14 17 18 19 22 23 
 24 26 27 28 29 30 35 37 38 40 42 43 
 44 46 47 49 50 
 29 
 4 5 6 7 8 12 13 16 17 18 20 23 
 24 25 27 28 30 31 32 35 37 39 40 42 
 43 44 45 46 50 
 43 
 1 2 3 4 5 6 7 8 9 10 13 14 
 15 16 17 18 19 20 22 26 27 28 29 30 
 31 32 34 35 36 37 38 39 40 41 42 43 
 44 45 46 47 48 49 50 
 2 
 36 46 
 12 
 1 2 4 7 15 35 39 41 44 45 46 49 
 15 
 2 7 14 15 19 20 28 29 33 39 41 43 
 47 48 50 
 16 
 7 10 15 19 20 22 23 25 26 29 30 32 
 33 34 36 39 
 22 
 1 6 7 8 11 12 14 15 17 18 20 21 
 22 25 34 37 39 43 45 46 48 49 
 6 
 5 11 15 37 43 50 
 40 
 1 2 3 4 5 6 7 10 11 12 13 14 
 15 16 17 18 19 21 23 24 25 26 27 28 
 29 30 31 32 33 37 38 39 41 42 43 44 
 46 47 48 50 
 6 
 7 30 34 37 43 44 
 18 
 4 6 7 12 15 16 17 20 30 33 34 35 
 36 38 43 47 49 50 
 37 
 1 4 5 8 9 11 13 14 15 16 17 18 
 20 22 23 24 25 27 28 29 30 32 33 34 
 35 36 38 40 41 42 43 44 45 46 47 48 
 50 
 3 
 39 48 49 
 6 
 22 27 29 41 44 48 
 6 
 9 10 31 36 41 42 
 22 
 4 7 9 11 12 14 15 17 18 19 30 31 
 32 33 39 41 42 43 45 47 49 50 
 15 
 4 7 17 20 21 23 24 28 32 34 37 38 
 39 48 49 
 27 
 1 4 5 7 8 12 13 16 17 18 19 21 
 24 26 29 32 33 34 35 36 37 38 40 41 
 42 47 48 
 14 
 5 7 8 13 18 22 27 30 33 34 38 41 
 43 50 
 11 
 2 20 22 24 28 29 32 33 39 46 48 
 3 
 6 9 12 
 23 
 6 7 11 13 15 17 19 20 22 23 24 26 
 27 30 31 34 35 37 38 45 46 47 49 
 11 
 6 26 28 29 32 36 40 45 46 49 50 
 15 
 6 8 9 12 15 19 25 28 29 32 36 37 
 38 43 47 
 20 
 2 3 4 8 9 15 17 20 21 23 24 25 
 27 29 30 31 42 45 47 49 
 45 
 1 2 3 4 5 6 7 8 9 10 11 13 
 14 15 16 17 18 19 21 22 23 24 25 26 
 27 28 29 32 33 34 35 37 38 39 40 41 
 42 43 44 45 46 47 48 49 50 
 13 
 6 15 18 21 22 25 27 31 37 39 44 45 
 46 
 3 
 18 22 48 
 29 
 3 4 5 8 9 10 11 13 15 16 18 20 
 24 27 28 30 31 32 33 34 36 38 39 41 
 42 43 44 46 48 
 21 
 5 6 10 12 14 16 18 19 21 22 25 27 
 28 31 33 36 37 43 44 48 49 
 46 
 1 2 4 6 7 8 9 10 11 12 13 14 
 15 16 17 18 19 20 21 22 23 24 25 26 
 27 28 29 31 32 33 34 35 36 37 38 39 
 40 41 42 43 44 45 47 48 49 50 
 32 
 3 4 5 6 7 8 13 14 16 19 20 24 
 25 26 27 29 31 33 34 35 36 38 39 40 
 42 44 45 46 47 48 49 50 
 16 
 1 2 4 7 9 12 14 17 25 26 32 33 
 41 43 45 47 
 14 
 2 5 9 11 17 19 25 26 28 29 33 42 
 44 50 
 39 
 1 2 3 4 5 6 7 8 9 11 12 13 
 14 15 21 22 23 24 26 27 28 29 30 31 
 32 33 34 35 36 38 39 40 41 42 43 44 
 45 46 48 
 16 
 5 13 14 15 17 19 22 24 25 32 35 38 
 41 43 44 50 
 35 
 1 2 4 6 8 9 10 11 12 14 15 16 
 19 22 23 24 25 26 27 29 30 31 32 33 
 35 37 38 40 42 43 44 45 47 49 50 
 50 
 1 2 3 4 5 6 7 8 9 10 11 12 
 13 14 15 16 17 18 19 20 21 22 23 24 
 25 26 27 28 29 30 31 32 33 34 35 36 
 37 38 39 40 41 42 43 44 45 46 47 48 
 49 50 
 47 
 1 2 3 4 5 6 7 8 9 10 11 12 
 13 14 15 16 17 18 19 20 21 23 24 25 
 26 27 28 29 30 32 33 34 35 36 37 38 
 39 40 41 42 43 44 45 46 47 48 50 
 38 
 2 3 5 7 8 9 10 11 12 13 14 15 
 16 18 20 21 22 23 25 28 29 31 32 33 
 34 35 36 37 38 40 41 42 44 46 47 48 
 49 50 
 11 
 4 9 10 13 23 33 35 41 45 49 50 
 6 
 2 9 32 33 45 46 
 37 
 1 2 3 4 5 6 7 8 10 11 13 15 
 16 19 21 22 23 24 25 26 27 28 30 31 
 32 34 35 36 38 39 40 43 44 45 46 47 
 49 
 18 
 1 3 4 5 6 7 18 24 25 31 33 35 
 39 41 44 45 47 48 
 20 
 1 2 7 9 14 19 20 21 22 26 29 30 
 31 32 37 39 42 44 48 49 
 7 
 6 7 11 19 29 40 47 
 42 
 1 3 6 7 8 9 10 11 12 13 15 16 
 17 18 19 20 21 22 24 25 26 27 28 29 
 30 31 32 33 35 36 37 38 39 41 42 44 
 45 46 47 48 49 50 
 6 
 17 34 39 41 44 45 
 12 
 1 3 6 16 17 24 28 32 35 42 43 45 
 37 
 1 2 3 4 5 6 7 9 11 12 13 14 
 15 16 18 19 20 21 22 23 26 27 28 29 
 30 31 32 33 35 36 37 38 39 42 44 45 
 48 
 48 
 1 2 3 4 5 6 7 8 9 10 11 12 
 13 14 15 16 17 18 19 21 22 24 25 26 
 27 28 29 30 31 32 33 34 35 36 37 38 
 39 40 41 42 43 44 45 46 47 48 49 50 
 26 
 2 3 7 8 10 13 17 19 20 24 25 26 
 27 28 32 34 35 37 38 41 42 43 44 46 
 47 50 
 48 
 1 2 4 5 6 7 8 9 10 11 12 13 
 14 15 16 17 18 19 20 21 22 23 24 25 
 26 27 28 29 30 32 33 34 35 36 37 38 
 39 40 41 42 43 44 45 46 47 48 49 50 
 16 
 1 3 4 6 11 13 15 16 20 28 35 36 
 37 39 42 50 
 10 
 1 18 19 23 28 32 35 41 43 45 
 47 
 1 2 3 4 5 6 8 9 10 11 12 13 
 14 15 16 17 18 19 20 21 22 23 24 25 
 26 27 28 29 30 31 32 33 34 36 37 38 
 40 41 42 43 44 45 46 47 48 49 50 
 6 
 10 17 22 26 32 33 
 50 
 1 2 3 4 5 6 7 8 9 10 11 12 
 13 14 15 16 17 18 19 20 21 22 23 24 
 25 26 27 28 29 30 31 32 33 34 35 36 
 37 38 39 40 41 42 43 44 45 46 47 48 
 49 50 
 23 
 1 3 4 7 8 9 12 14 15 16 17 21 
 23 24 25 32 34 37 42 43 44 47 49 
 18 
 1 4 6 7 15 17 19 22 32 35 36 37 
 38 39 41 43 45 46 
 40 
 1 2 3 4 5 7 8 9 10 11 12 13 
 14 15 16 17 18 21 22 23 25 26 28 29 
 30 32 34 35 37 38 40 41 43 44 45 46 
 47 48 49 50 
 7 
 10 15 17 24 26 27 43 
 7 
 3 10 15 16 18 24 43 
 14 
 1 2 4 7 18 24 26 29 30 32 33 35 
 39 40 
 29 
 2 3 4 8 10 11 12 13 14 15 16 18 
 19 24 25 27 29 32 33 34 37 40 42 43 
 45 46 47 49 50 
 9 
 2 6 10 21 32 33 39 40 50 
 44 
 1 2 3 4 5 6 7 9 10 11 12 14 
 15 16 18 19 20 22 23 24 25 26 27 28 
 29 30 31 32 33 34 35 36 37 38 39 40 
 41 42 43 44 47 48 49 50 
 48 
 1 3 4 5 6 7 8 9 10 11 12 13 
 14 15 16 17 18 19 20 22 23 24 25 26 
 27 28 29 30 31 32 33 34 35 36 37 38 
 39 40 41 42 43 44 45 46 47 48 49 50 
 34 
 1 2 3 4 5 6 7 9 10 11 13 14 
 18 19 20 21 22 23 25 26 27 28 31 32 
 36 37 38 39 43 44 45 47 48 50 
 44 
 1 2 3 4 5 6 7 9 11 12 13 14 
 15 16 17 18 19 21 22 24 25 26 27 28 
 29 31 32 33 34 35 37 38 39 40 41 42 
 43 44 45 46 47 48 49 50 
 43 
 1 2 3 6 7 9 10 11 12 13 14 16 
 18 19 20 21 22 23 24 25 26 27 29 30 
 31 32 33 34 35 36 37 38 39 40 41 42 
 43 44 45 47 48 49 50 
 41 
 1 2 3 4 7 8 9 10 11 12 13 14 
 15 16 17 18 19 20 22 23 24 25 26 27 
 28 29 31 32 33 34 36 37 39 40 42 43 
 44 45 47 48 50 
 21 
 2 3 4 6 7 9 15 18 20 22 24 27 
 28 30 32 33 36 39 40 44 47 
 44 
 2 4 5 6 7 8 9 10 11 12 13 14 
 15 16 17 18 19 20 21 22 23 24 25 26 
 28 30 32 33 34 35 36 37 38 39 41 42 
 43 44 45 46 47 48 49 50 
 6 
 3 20 30 37 38 41 
 11 
 3 7 12 19 20 30 32 35 45 48 50 
 30 
 1 3 4 5 8 9 10 14 15 17 18 20 
 21 22 23 25 26 30 32 34 36 37 38 39 
 40 46 47 48 49 50 
 38 
 1 2 3 4 6 8 9 10 11 13 14 17 
 18 19 20 21 22 23 24 26 27 28 29 30 
 34 35 37 38 40 41 42 44 45 46 47 48 
 49 50 
 3 
 7 21 32 
 11 
 8 9 12 22 29 32 33 36 41 44 49 
 39 
 1 2 6 7 8 9 11 12 13 14 15 16 
 18 19 20 21 22 23 24 25 26 27 28 29 
 30 32 33 34 35 38 40 42 44 45 46 47 
 48 49 50 
 30 
 1 2 4 6 8 10 11 14 15 16 18 19 
 20 22 23 25 26 28 30 32 33 34 35 36 
 38 40 44 45 49 50 
 43 
 1 2 3 4 5 6 7 8 9 10 12 14 
 15 16 17 18 19 20 23 24 25 26 27 28 
 29 30 31 32 33 34 37 38 39 40 41 42 
 43 44 45 46 47 48 49 
 9 
 1 2 11 19 38 43 46 47 50 
 9 
 3 7 14 29 32 34 35 39 48 
 34 
 3 4 5 6 7 8 9 10 11 13 15 16 
 18 19 20 21 22 23 24 26 30 31 32 35 
 37 39 40 41 43 44 45 46 47 49 
 31 
 4 9 10 11 14 16 19 20 21 24 25 26 
 27 30 31 32 35 36 37 38 39 40 41 42 
 43 44 45 46 48 49 50 
 42 
 2 4 5 7 8 9 10 11 12 14 15 16 
 18 19 20 22 23 24 25 26 27 28 30 31 
 33 34 35 36 37 38 39 40 41 42 43 44 
 45 46 47 48 49 50 
 2 
 7 35 
 45 
 1 3 5 6 7 8 9 10 11 12 13 14 
 15 16 17 18 19 21 22 23 25 26 27 28 
 29 30 31 32 33 34 35 37 38 39 40 41 
 42 43 44 45 46 47 48 49 50 
 23 
 1 3 4 7 10 12 13 16 18 19 20 22 
 23 24 25 30 33 35 38 40 43 44 49 
 5 
 19 35 39 45 50 
 22 
 2 3 6 7 8 9 12 14 18 19 27 28 
 32 33 35 36 37 39 44 45 48 49 
 19 
 4 5 14 15 17 18 19 22 24 28 29 30 
 31 36 39 46 48 49 50 
 15 
 3 5 8 14 15 22 23 25 26 30 31 34 
 39 44 47 
 49 
 1 2 4 5 6 7 8 9 10 11 12 13 
 14 15 16 17 18 19 20 21 22 23 24 25 
 26 27 28 29 30 31 32 33 34 35 36 37 
 38 39 40 41 42 43 44 45 46 47 48 49 
 50 
 4 
 3 9 10 12 
 46 
 1 2 3 4 5 6 7 8 9 11 12 13 
 14 15 16 17 18 19 20 21 22 23 24 25 
 27 28 29 30 31 32 33 34 35 36 37 38 
 39 40 41 42 43 44 46 48 49 50 
 45 
 1 2 4 5 6 7 8 10 11 12 13 14 
 15 17 18 19 20 21 22 23 24 25 26 27 
 28 29 30 31 32 33 34 35 37 38 39 40 
 42 43 44 45 46 47 48 49 50 
 37 
 1 2 3 4 5 6 7 8 12 13 14 15 
 16 17 18 21 23 25 26 27 28 29 30 32 
 33 35 36 37 38 39 42 43 46 47 48 49 
 50 
 19 
 1 10 11 12 13 16 17 21 22 23 28 30 
 32 36 37 39 40 46 49 
 40 
 1 2 4 5 6 7 8 9 11 12 13 14 
 15 16 17 18 19 20 21 22 23 24 26 27 
 28 29 31 32 33 36 37 39 40 41 43 44 
 45 47 48 49 
 33 
 3 4 5 7 8 9 10 11 12 13 14 17 
 20 21 22 25 26 27 28 29 30 32 33 34 
 35 36 39 40 44 47 48 49 50 
 7 
 4 12 21 27 38 40 42 
 44 
 2 3 4 5 6 7 8 9 10 11 13 14 
 15 16 17 18 19 20 21 22 23 24 26 27 
 28 30 31 32 33 34 35 36 37 38 39 40 
 41 42 43 44 45 46 49 50 
 16 
 3 5 7 10 11 17 20 21 23 26 28 33 
 34 39 40 50 
 33 
 1 3 4 5 7 8 9 11 12 13 16 20 
 21 22 23 24 26 27 29 31 32 34 35 37 
 38 39 42 45 46 47 48 49 50 
 43 
 1 2 3 4 5 6 7 8 9 10 11 12 
 13 14 17 18 19 20 21 22 23 24 25 26 
 27 28 29 31 33 35 36 37 40 41 42 43 
 44 45 46 47 48 49 50 
 3 
 21 26 48 
 9 
 1 3 5 9 23 30 34 41 48 
 35 
 2 3 5 6 8 9 10 11 12 13 14 15 
 16 17 19 20 22 23 24 25 26 28 29 30 
 31 32 33 35 37 38 40 43 46 47 48 
 36 
 1 2 4 5 10 11 12 13 16 17 18 19 
 20 21 22 23 24 25 26 28 29 30 31 32 
 35 36 37 38 39 40 41 44 45 47 48 49 
 35 
 2 3 4 5 7 8 9 10 12 13 14 15 
 16 20 24 25 26 28 29 31 32 33 34 35 
 36 37 38 39 40 42 43 45 46 47 49 
 5 
 1 13 27 40 47 
 18 
 4 6 7 10 14 17 18 21 22 23 27 28 
 29 32 34 38 39 46 
 26 
 1 3 6 7 8 9 11 14 15 17 20 22 
 23 24 27 28 29 31 32 34 35 43 44 46 
 47 49 
 40 
 1 3 4 6 7 8 10 11 12 13 14 15 
 16 17 18 19 20 21 23 25 26 27 30 31 
 32 33 34 35 36 37 38 40 41 42 43 44 
 45 47 48 49 
 37 
 2 3 4 5 6 7 8 9 10 11 12 13 
 14 19 21 22 23 24 25 28 29 31 32 33 
 34 36 38 39 40 42 43 44 45 47 48 49 
 50 
 45 
 1 2 5 6 7 8 9 10 11 12 13 14 
 15 16 17 18 19 20 21 22 24 25 26 27 
 28 29 30 31 32 33 34 35 36 37 38 39 
 40 41 42 43 45 47 48 49 50 
 30 
 1 2 3 6 7 8 9 10 11 12 13 14 
 17 25 28 30 32 33 35 36 37 38 39 40 
 42 43 44 46 49 50 
 18 
 1 2 5 6 13 14 15 17 19 20 24 27 
 38 39 40 42 43 44 
 10 
 2 3 18 24 26 27 30 33 40 42 
 29 
 1 2 3 8 9 10 11 12 14 16 18 20 
 24 28 29 32 33 35 36 37 38 39 41 43 
 45 47 48 49 50 
 6 
 10 16 29 30 38 39 
 24 
 1 2 5 6 7 8 14 15 18 22 23 24 
 26 27 30 31 32 37 39 41 42 44 46 47 
 22 
 4 6 7 8 10 11 12 13 14 16 17 18 
 21 26 29 31 34 39 40 41 42 47 
 6 
 2 13 36 42 44 47 
 32 
 1 4 5 7 8 9 10 11 12 13 15 17 
 18 21 25 28 29 30 31 32 34 36 38 39 
 40 42 43 46 47 48 49 50 
 11 
 3 9 14 15 17 24 25 35 36 42 45 
 22 
 1 3 5 10 12 15 17 19 20 22 25 27 
 28 32 33 35 36 39 42 44 46 48 
 39 
 2 3 4 5 6 7 9 10 12 13 14 16 
 17 18 19 20 21 22 23 24 25 26 27 28 
 29 30 31 32 34 35 36 37 38 41 42 43 
 45 49 50 
 14 
 7 10 12 19 21 23 31 33 35 38 39 47 
 48 50 
 41 
 2 3 4 5 6 7 8 9 10 11 12 13 
 15 17 18 20 21 23 24 25 26 27 28 30 
 31 32 34 35 36 37 38 39 40 41 42 43 
 45 47 48 49 50 
 29 
 1 2 3 6 7 8 10 13 15 16 17 22 
 23 25 27 32 35 37 38 39 40 41 42 43 
 44 45 46 48 49 
 28 
 3 5 6 7 9 12 13 14 15 16 19 20 
 21 23 24 27 34 36 37 38 39 40 41 42 
 44 45 48 49 
 37 
 2 3 4 5 7 8 9 10 11 13 15 16 
 17 18 19 20 21 22 23 24 25 26 27 28 
 29 30 31 33 36 37 38 40 43 46 47 48 
 49 
 16 
 8 9 15 16 17 18 21 26 27 29 30 34 
 39 40 41 50 
 40 
 2 3 4 5 6 7 8 9 10 11 12 13 
 14 15 16 17 19 20 21 22 23 24 26 27 
 28 29 31 32 33 35 36 39 40 42 43 44 
 45 46 48 50 
 42 
 1 2 4 5 6 7 8 9 11 12 13 15 
 17 18 19 20 22 23 24 25 26 27 28 29 
 30 31 32 33 34 35 36 37 38 39 40 41 
 42 46 47 48 49 50 
 41 
 1 2 3 4 5 6 7 9 10 11 12 14 
 15 16 17 18 19 20 21 23 24 25 26 27 
 28 31 32 36 37 38 39 40 42 43 44 45 
 46 47 48 49 50 
 11 
 2 8 12 22 26 28 30 33 35 43 49 
 48 
 1 2 3 4 5 6 7 9 10 11 12 13 
 14 15 16 17 18 19 20 21 22 23 24 25 
 26 27 28 29 30 31 32 33 34 35 36 37 
 38 40 41 42 43 44 45 46 47 48 49 50 
 44 
 2 3 4 5 6 8 9 10 11 13 14 16 
 17 19 20 21 22 23 24 25 26 27 28 29 
 30 31 32 33 35 36 37 38 39 40 41 42 
 43 44 45 46 47 48 49 50 
 6 
 4 23 24 25 36 47 
 2 
 15 25 
 44 
 1 2 3 4 5 7 8 10 11 12 13 14 
 15 16 17 18 19 20 21 23 24 25 26 27 
 28 29 30 32 33 34 35 36 37 38 39 40 
 41 43 44 46 47 48 49 50 
 45 
 1 3 4 5 6 7 8 9 10 12 13 14 
 15 16 17 18 19 20 21 22 23 24 25 26 
 27 28 31 33 34 35 36 37 38 39 40 41 
 42 43 44 45 46 47 48 49 50 
 6 
 4 6 8 10 22 41 
 21 
 4 6 7 9 12 14 17 19 22 23 25 26 
 27 29 30 33 38 39 40 43 45 
 49 
 1 2 3 4 5 6 7 8 9 10 11 12 
 14 15 16 17 18 19 20 21 22 23 24 25 
 26 27 28 29 30 31 32 33 34 35 36 37 
 38 39 40 41 42 43 44 45 46 47 48 49 
 50 
 24 
 2 3 7 9 11 12 14 16 18 20 21 22 
 25 26 28 29 34 38 39 41 44 46 47 50 
 48 
 1 2 3 4 5 6 7 8 9 10 11 12 
 13 14 15 16 17 18 19 20 21 22 23 24 
 25 26 27 28 29 31 32 33 34 36 37 38 
 39 40 41 42 43 44 45 46 47 48 49 50 
 18 
 7 9 12 14 15 17 22 26 30 32 33 35 
 37 45 46 47 49 50 
 35 
 1 2 3 4 5 6 7 8 9 10 14 15 
 17 18 19 20 21 22 24 25 26 27 29 30 
 32 33 34 36 37 40 42 43 47 48 49 
 24 
 1 3 7 8 10 11 13 14 18 20 21 23 
 24 25 28 32 35 36 37 40 42 46 47 50 
 47 
 1 2 3 4 5 6 7 8 10 11 12 13 
 15 16 17 18 19 20 21 22 23 24 25 26 
 27 28 29 30 31 33 34 35 36 37 38 39 
 40 41 42 43 44 45 46 47 48 49 50 
 5 
 15 17 35 39 45 
 42 
 1 3 5 6 7 8 9 10 11 12 13 15 
 16 17 18 19 21 22 23 25 26 27 28 29 
 30 31 32 34 35 36 37 39 40 42 43 44 
 45 46 47 48 49 50 
 6 
 4 15 27 28 31 32 
 31 
 2 3 5 6 7 8 9 10 13 14 15 16 
 17 20 21 22 23 24 31 37 38 39 40 41 
 42 43 44 46 47 49 50 
 17 
 1 3 7 11 12 14 15 22 25 29 32 33 
 34 35 39 48 50 
 18 
 3 4 5 7 9 20 21 22 23 26 31 35 
 36 38 42 44 45 50 
 23 
 1 2 4 5 6 8 9 10 18 19 20 21 
 22 25 28 33 34 36 37 38 39 43 46 
 47 
 1 2 3 4 5 6 7 8 9 11 12 13 
 14 15 16 17 18 19 20 21 22 23 24 25 
 26 28 29 30 31 32 33 34 35 36 37 38 
 39 40 41 42 43 44 45 46 48 49 50 
 33 
 2 5 7 8 11 12 13 14 15 17 19 20 
 21 22 24 26 28 29 30 31 32 34 35 36 
 37 38 42 43 44 45 46 47 49 
 6 
 9 13 15 28 42 47 
 29 
 1 4 5 6 8 11 12 13 14 15 18 19 
 23 26 30 31 32 33 38 39 41 42 43 44 
 45 47 48 49 50 
 13 
 10 14 15 16 19 20 31 33 36 38 45 49 
 50 
 30 
 1 3 6 9 10 11 12 13 15 16 19 21 
 23 24 26 30 31 33 34 35 36 37 39 40 
 44 46 47 48 49 50 
 3 
 16 20 42 
 5 
 3 8 16 19 26 
 20 
 1 3 5 8 9 12 13 14 15 16 17 29 
 35 36 39 40 41 42 43 48 
 44 
 1 2 3 5 6 7 9 10 11 12 13 14 
 15 16 17 19 20 21 22 23 24 25 26 27 
 28 29 30 33 34 35 37 38 39 40 41 42 
 43 44 45 46 47 48 49 50 
 40 
 1 2 3 4 5 6 7 8 10 11 13 14 
 16 17 18 19 20 21 23 25 26 27 28 29 
 30 31 33 34 35 37 38 41 42 43 44 45 
 47 48 49 50 
 40 
 1 2 3 4 6 8 9 10 11 16 18 20 
 21 22 23 24 25 26 27 28 29 30 32 33 
 34 35 36 37 38 39 40 41 42 43 45 46 
 47 48 49 50 
 30 
 2 4 5 7 8 9 11 12 15 16 17 20 
 21 22 24 25 26 29 30 33 37 39 40 41 
 44 45 46 47 48 50 
 9 
 3 7 12 14 20 23 37 47 48 
 29 
 1 2 6 7 8 9 13 15 18 19 20 23 
 25 26 29 31 35 36 37 38 40 41 43 44 
 45 46 47 48 49 
 31 
 3 4 6 8 9 11 12 13 16 18 19 20 
 22 23 24 25 26 28 29 32 33 35 36 37 
 38 40 41 42 43 45 49 
 